 5
 1   2.0915320
 1   3.6225340
 1   6.2745960
 1  10.8676010
 1  18.8237890      

!
!
!

 $CONTRL SCFTYP=RHF RUNTYP=ENERGY MAXIT=100 EXETYP=RUN
         INTTYP=HONDO ICHARG=1 MULT=1 MPLEVL=0 UNITS=BOHR  $END 
 $SYSTEM TIMLIM=3000 MWORDS=50 $END 
 $INTGRL SCHWRZ=.F. $END 
 $SCF    SOGTOL=1.0d+00 $END
 $NEO    NEOSCF=DIAGZN BASNUC=READIN NUMULT=2 EXCH=.T.
         NUNIQN=1 IUNIQN(1)=3 NUCST=1
         XCTYP=XCHF1
         XC1G2=MD XC1G3=MD XC1G4=MD
         BCOEF1(1)=5.046,5.407,3.467
         GAMMA1(1)=0.1928,1.2366,8.275
         NGTG1=3 $END
 $GUESS  GUESS=MOREAD NORB=3 $END
 $GESNMO GUESS=MOREAD NORB=5 $END
 $DATA

 C1
 HE          2.0  -0.0000000000  -0.0000000000  -2.1259417362
S   2
  1      2.432879300            0.4301284983
  2      0.433051300            0.6789135305

 HE          2.0  -0.0000000000  -0.0000000000   2.1259417362
S   2
  1      2.432879300            0.4301284983
  2      0.433051300            0.6789135305

 H           1.0   0.0000000000   0.0000000000   0.000000
S   2
  1      1.309756400            0.4301284983
  2      0.233136000            0.6789135305

 $END
iNEOHF GUESS:
 $VEC
 1  1 6.11240555E-01 6.11240555E-01 2.39463526E-01
 2  1 7.10545634E-01-7.10545634E-01 0.00000000E+00
 3  1-4.99068673E-01-4.99068673E-01 1.09546870E+00
 $END
 $VECPRO
 1  1-6.30632637E-03 3.47342895E-02-1.50240817E-01-8.82116218E-01 7.91935869E-04
 2  1-1.66639581E-01 8.93163649E-01-3.68715729E+00 2.28714317E+00 6.54110375E-01
 3  1-5.36540441E-01 2.56817961E+00 8.31132910E-01-6.62430992E+00 4.33976206E+00
 4  1-1.84923951E+00 1.25824336E+01-2.41266783E+01 2.06699713E+01-7.21923007E+00
 5  1-9.26189906E+00 2.35387634E+01-2.60958694E+01 1.55781198E+01-4.25648912E+00
 $END

iMIKE GUESS ORBITALS:
i $VEC   
i 1  1 6.41304996E-01 6.41304995E-01 1.70365535E-01
i 2  1-7.10545633E-01 7.10545634E-01 1.21431107E-11
i 3  1-4.59796106E-01-4.59796106E-01 1.10831856E+00
i $END   
i $VECPRO
i 1  1-8.59622477E+00 2.00515277E+01-2.00361751E+01 1.06905843E+01-2.62080985E+00
i 2  1-3.21192906E+00 1.42833501E+01-1.98156509E+01 1.22915350E+01-3.16439338E+00
i 3  1-1.51986928E+00 7.04504083E+00-1.38507878E+01 1.05757251E+01-2.93269400E+00
i 4  1 1.16802735E+00-5.42628005E+00 1.13407609E+01-1.10408837E+01 3.33264461E+00
i 5  1 1.27760950E+00-5.88477212E+00 1.27606418E+01-1.48559302E+01 7.27372906E+00
i $END
