i
!
!
!

 $CONTRL SCFTYP=RHF RUNTYP=ENERGY MAXIT=100 EXETYP=RUN
         INTTYP=HONDO ICHARG=0 MULT=1 MPLEVL=0 UNITS=BOHR  $END 
 $SYSTEM TIMLIM=3000 MWORDS=50 $END 
 $INTGRL SCHWRZ=.F. $END 
 $SCF    SOSCF=.T. SOGTOL=1.0d+00 $END
 $GUESS  GUESS=HCORE NORB=3 $END
i$GESNMO GUESS=MOREAD NORB=5 $END
 $DATA

 C1
 HE          2.0  -0.0000000000  -0.0000000000  -2.1259417362
S   3
  1     38.3600000              0.0238090        
  2      5.7700000              0.1548910        
  3      1.2400000              0.4699870        
S   1
  1      0.2976000              1.0000000        
P   1
  1      1.2750000              1.0000000        

$END

