 12
 1   2.091532
 1   3.622534
 1   6.274596
 1   10.867601
 1   18.823789
 2   2.091532
 2   3.622534
 2   6.274596
 2   10.867601
 2   18.823789
 3   6.274596
 3   10.867601

!
!
!
 $CONTRL SCFTYP=RHF RUNTYP=ENERGY MAXIT=100 EXETYP=DEBUG
         INTTYP=HONDO ICHARG=1 MULT=1 MPLEVL=0 QMTTOL=1.0D-12 $END
 $SYSTEM TIMLIM=3000 MWORDS=50 $END
 $INTGRL SCHWRZ=.F. $END
!$STATPT hssend=.true. $end
 $NEO    NEOSCF=DIAGZN BASNUC=READIN NUMULT=2 EXCH=.T.
         NUNIQN=1 IUNIQN(1)=3 NUCST=1
         XCTYP=NONE
         XC1G2=MD XC1G3=MD XC1G4=MD
         BCOEF1(1)=3.072,2.3331,1.5905
         GAMMA1(1)=0.2471,2.3637,16.2816
         NGTG1=3 $END
 $GUESS  GUESS=MOREAD NORB=35 $END
 $GESNMO GUESS=MOREAD NORB=32 $END
 $DATA

C1
 LI          3.0     0.0000000000        0.0000000000      -1.6887999335 
S   8
  1   1469.0000000              0.0007660        
  2    220.5000000              0.0058920        
  3     50.2600000              0.0296710        
  4     14.2400000              0.1091800        
  5      4.5810000              0.2827890        
  6      1.5800000              0.4531230        
  7      0.5640000              0.2747740        
  8      0.0734500              0.0097510        
S   8
  1   1469.0000000             -0.0001200        
  2    220.5000000             -0.0009230        
  3     50.2600000             -0.0046890        
  4     14.2400000             -0.0176820        
  5      4.5810000             -0.0489020        
  6      1.5800000             -0.0960090        
  7      0.5640000             -0.1363800        
  8      0.0734500              0.5751020        
S   1
  1      0.0280500              1.0000000        
P   3
  1      1.5340000              0.0227840        
  2      0.2749000              0.1391070        
  3      0.0736200              0.5003750        
P   1
  1      0.0240300              1.0000000        
D   1
  1      0.1239000              1.0000000        

 LI          3.0     0.0000000000        0.0000000000        1.6887999335
S   8
  1   1469.0000000              0.0007660        
  2    220.5000000              0.0058920        
  3     50.2600000              0.0296710        
  4     14.2400000              0.1091800        
  5      4.5810000              0.2827890        
  6      1.5800000              0.4531230        
  7      0.5640000              0.2747740        
  8      0.0734500              0.0097510        
S   8
  1   1469.0000000             -0.0001200        
  2    220.5000000             -0.0009230        
  3     50.2600000             -0.0046890        
  4     14.2400000             -0.0176820        
  5      4.5810000             -0.0489020        
  6      1.5800000             -0.0960090        
  7      0.5640000             -0.1363800        
  8      0.0734500              0.5751020        
S   1
  1      0.0280500              1.0000000        
P   3
  1      1.5340000              0.0227840        
  2      0.2749000              0.1391070        
  3      0.0736200              0.5003750        
P   1
  1      0.0240300              1.0000000        
D   1
  1      0.1239000              1.0000000        

 H           1.0     0.0000000000        0.0000000000        0.0000000000
S   3
  1     13.0100000              0.0196850        
  2      1.9620000              0.1379770        
  3      0.4446000              0.4781480        
S   1
  1      0.1220000              1.0000000        
P   1
  1      0.7270000              1.0000000        

 $END
--- CLOSED SHELL ORBITALS --- GENERATED AT Wed Mar  9 11:38:46 2011
                                                                                
E(RHF)=      -15.2718375739, E(NUC)=    1.4100531237,    9 ITERS
 $VEC   
 1  1 7.03409987E-01-8.16213375E-03-1.46741414E-03 0.00000000E+00 0.00000000E+00
 1  2-9.78097687E-03 0.00000000E+00 0.00000000E+00 2.53750510E-03 1.18913017E-03
 1  3 1.18913017E-03-3.55660402E-03 0.00000000E+00 0.00000000E+00 0.00000000E+00
 1  4 7.03409987E-01-8.16213375E-03-1.46741414E-03 0.00000000E+00 0.00000000E+00
 1  5 9.78097687E-03 0.00000000E+00 0.00000000E+00-2.53750510E-03 1.18913017E-03
 1  6 1.18913017E-03-3.55660402E-03 0.00000000E+00 0.00000000E+00 0.00000000E+00
 1  7 3.03279101E-03 2.23042793E-02 0.00000000E+00 0.00000000E+00 0.00000000E+00
 2  1-7.08285479E-01-2.93160610E-03 8.76258296E-03 0.00000000E+00 0.00000000E+00
 2  2 5.63679990E-03 0.00000000E+00 0.00000000E+00 1.84257321E-03 6.33757030E-04
 2  3 6.33757030E-04 4.31939266E-03 0.00000000E+00 0.00000000E+00 0.00000000E+00
 2  4 7.08285479E-01 2.93160610E-03-8.76258296E-03 0.00000000E+00 0.00000000E+00
 2  5 5.63679990E-03 0.00000000E+00 0.00000000E+00 1.84257321E-03-6.33757030E-04
 2  6-6.33757030E-04-4.31939266E-03 0.00000000E+00 0.00000000E+00 0.00000000E+00
 2  7 0.00000000E+00 0.00000000E+00 0.00000000E+00 0.00000000E+00 1.72540555E-03
 3  1-1.62360454E-02 2.27476049E-01 6.52811886E-03 0.00000000E+00 0.00000000E+00
 3  2 2.04597919E-01 0.00000000E+00 0.00000000E+00-4.28415544E-02-3.67931247E-02
 3  3-3.67931247E-02 4.12319638E-02 0.00000000E+00 0.00000000E+00 0.00000000E+00
 3  4-1.62360454E-02 2.27476049E-01 6.52811886E-03 0.00000000E+00 0.00000000E+00
 3  5-2.04597919E-01 0.00000000E+00 0.00000000E+00 4.28415544E-02-3.67931247E-02
 3  6-3.67931247E-02 4.12319638E-02 0.00000000E+00 0.00000000E+00 0.00000000E+00
 3  7 3.97803957E-01 1.86436816E-01 0.00000000E+00 0.00000000E+00 0.00000000E+00
 4  1 3.39981812E-02-2.12874516E-01-3.20079032E-01 0.00000000E+00 0.00000000E+00
 4  2 1.43224567E-01 0.00000000E+00 0.00000000E+00 2.58349543E-01-1.12760167E-02
 4  3-1.12760167E-02-1.97658618E-02 0.00000000E+00 0.00000000E+00 0.00000000E+00
 4  4-3.39981812E-02 2.12874516E-01 3.20079032E-01 0.00000000E+00 0.00000000E+00
 4  5 1.43224567E-01 0.00000000E+00 0.00000000E+00 2.58349543E-01 1.12760167E-02
 4  6 1.12760167E-02 1.97658618E-02 0.00000000E+00 0.00000000E+00 0.00000000E+00
 4  7 0.00000000E+00 0.00000000E+00 0.00000000E+00 0.00000000E+00 5.22305837E-03
 5  1-4.38991221E-02 9.84111266E-02 5.39040114E-01 0.00000000E+00 0.00000000E+00
 5  2-2.00885049E-01 0.00000000E+00 0.00000000E+00-1.74052438E-01 3.41480274E-03
 5  3 3.41480274E-03 2.22621900E-02 0.00000000E+00 0.00000000E+00 0.00000000E+00
 5  4-4.38991221E-02 9.84111266E-02 5.39040114E-01 0.00000000E+00 0.00000000E+00
 5  5 2.00885049E-01 0.00000000E+00 0.00000000E+00 1.74052438E-01 3.41480274E-03
 5  6 3.41480274E-03 2.22621900E-02 0.00000000E+00 0.00000000E+00 0.00000000E+00
 5  7-7.85587666E-02-2.15594462E-01 0.00000000E+00 0.00000000E+00 0.00000000E+00
 6  1 0.00000000E+00 0.00000000E+00 0.00000000E+00 2.21694202E-01 1.01090881E-01
 6  2 0.00000000E+00 3.59071675E-01 1.63733971E-01 0.00000000E+00 0.00000000E+00
 6  3 0.00000000E+00 0.00000000E+00 0.00000000E+00 8.61584809E-04 3.92876164E-04
 6  4 0.00000000E+00 0.00000000E+00 0.00000000E+00 2.21694202E-01 1.01090881E-01
 6  5 0.00000000E+00 3.59071675E-01 1.63733971E-01 0.00000000E+00 0.00000000E+00
 6  6 0.00000000E+00 0.00000000E+00 0.00000000E+00-8.61584809E-04-3.92876164E-04
 6  7 0.00000000E+00 0.00000000E+00 9.90326375E-03 4.51581346E-03 0.00000000E+00
 7  1 0.00000000E+00 0.00000000E+00 0.00000000E+00-1.01090881E-01 2.21694202E-01
 7  2 0.00000000E+00-1.63733971E-01 3.59071675E-01 0.00000000E+00 0.00000000E+00
 7  3 0.00000000E+00 0.00000000E+00 0.00000000E+00-3.92876164E-04 8.61584809E-04
 7  4 0.00000000E+00 0.00000000E+00 0.00000000E+00-1.01090881E-01 2.21694202E-01
 7  5 0.00000000E+00-1.63733971E-01 3.59071675E-01 0.00000000E+00 0.00000000E+00
 7  6 0.00000000E+00 0.00000000E+00 0.00000000E+00 3.92876164E-04-8.61584809E-04
 7  7 0.00000000E+00 0.00000000E+00-4.51581346E-03 9.90326375E-03 0.00000000E+00
 8  1 0.00000000E+00 0.00000000E+00 0.00000000E+00 2.05343863E-01 5.51414276E-02
 8  2 0.00000000E+00 8.79951763E-01 2.36295333E-01 0.00000000E+00 0.00000000E+00
 8  3 0.00000000E+00 0.00000000E+00 0.00000000E+00-3.32238677E-02-8.92167637E-03
 8  4 0.00000000E+00 0.00000000E+00 0.00000000E+00-2.05343863E-01-5.51414276E-02
 8  5 0.00000000E+00-8.79951763E-01-2.36295333E-01 0.00000000E+00 0.00000000E+00
 8  6 0.00000000E+00 0.00000000E+00 0.00000000E+00-3.32238677E-02-8.92167637E-03
 8  7 0.00000000E+00 0.00000000E+00 0.00000000E+00 0.00000000E+00 0.00000000E+00
 9  1 0.00000000E+00 0.00000000E+00 0.00000000E+00 5.51414276E-02-2.05343863E-01
 9  2 0.00000000E+00 2.36295333E-01-8.79951763E-01 0.00000000E+00 0.00000000E+00
 9  3 0.00000000E+00 0.00000000E+00 0.00000000E+00-8.92167637E-03 3.32238677E-02
 9  4 0.00000000E+00 0.00000000E+00 0.00000000E+00-5.51414276E-02 2.05343863E-01
 9  5 0.00000000E+00-2.36295333E-01 8.79951763E-01 0.00000000E+00 0.00000000E+00
 9  6 0.00000000E+00 0.00000000E+00 0.00000000E+00-8.92167637E-03 3.32238677E-02
 9  7 0.00000000E+00 0.00000000E+00 0.00000000E+00 0.00000000E+00 0.00000000E+00
10  1-8.18912099E-02-1.81024832E-01 1.41440612E-01 0.00000000E+00 0.00000000E+00
10  2-1.01709261E-01 0.00000000E+00 0.00000000E+00 8.90184749E-01 6.47897927E-04
10  3 6.47897927E-04-2.79231069E-02 0.00000000E+00 0.00000000E+00 0.00000000E+00
10  4-8.18912099E-02-1.81024832E-01 1.41440612E-01 0.00000000E+00 0.00000000E+00
10  5 1.01709261E-01 0.00000000E+00 0.00000000E+00-8.90184749E-01 6.47897927E-04
10  6 6.47897927E-04-2.79231069E-02 0.00000000E+00 0.00000000E+00 0.00000000E+00
10  7-8.59166549E-02-4.14593926E-01 0.00000000E+00 0.00000000E+00 0.00000000E+00
11  1-6.73955396E-02 1.01989423E-01 2.75881081E+00 0.00000000E+00 0.00000000E+00
11  2-3.97207788E-02 0.00000000E+00 0.00000000E+00 2.01132139E+00 1.24404526E-02
11  3 1.24404526E-02 1.28278060E-02 0.00000000E+00 0.00000000E+00 0.00000000E+00
11  4 6.73955396E-02-1.01989423E-01-2.75881081E+00 0.00000000E+00 0.00000000E+00
11  5-3.97207788E-02 0.00000000E+00 0.00000000E+00 2.01132139E+00-1.24404526E-02
11  6-1.24404526E-02-1.28278060E-02 0.00000000E+00 0.00000000E+00 0.00000000E+00
11  7 0.00000000E+00 0.00000000E+00 0.00000000E+00 0.00000000E+00-7.47569247E-03
12  1 0.00000000E+00 0.00000000E+00 0.00000000E+00 1.16448449E-01 8.19026833E-01
12  2 0.00000000E+00-8.92027883E-02-6.27397596E-01 0.00000000E+00 0.00000000E+00
12  3 0.00000000E+00 0.00000000E+00 0.00000000E+00 6.80080616E-03 4.78326913E-02
12  4 0.00000000E+00 0.00000000E+00 0.00000000E+00 1.16448449E-01 8.19026833E-01
12  5 0.00000000E+00-8.92027883E-02-6.27397596E-01 0.00000000E+00 0.00000000E+00
12  6 0.00000000E+00 0.00000000E+00 0.00000000E+00-6.80080616E-03-4.78326913E-02
12  7 0.00000000E+00 0.00000000E+00 1.78189471E-03 1.25327524E-02 0.00000000E+00
13  1 0.00000000E+00 0.00000000E+00 0.00000000E+00 8.19026833E-01-1.16448449E-01
13  2 0.00000000E+00-6.27397596E-01 8.92027883E-02 0.00000000E+00 0.00000000E+00
13  3 0.00000000E+00 0.00000000E+00 0.00000000E+00 4.78326913E-02-6.80080616E-03
13  4 0.00000000E+00 0.00000000E+00 0.00000000E+00 8.19026833E-01-1.16448449E-01
13  5 0.00000000E+00-6.27397596E-01 8.92027883E-02 0.00000000E+00 0.00000000E+00
13  6 0.00000000E+00 0.00000000E+00 0.00000000E+00-4.78326913E-02 6.80080616E-03
13  7 0.00000000E+00 0.00000000E+00 1.25327524E-02-1.78189471E-03 0.00000000E+00
14  1-2.19795031E-01-7.89627543E-01 1.05274308E+00 0.00000000E+00 0.00000000E+00
14  2 6.93234942E-01 0.00000000E+00 0.00000000E+00-4.39400860E-01-7.98503498E-02
14  3-7.98503498E-02-1.34043019E-03 0.00000000E+00 0.00000000E+00 0.00000000E+00
14  4-2.19795031E-01-7.89627543E-01 1.05274308E+00 0.00000000E+00 0.00000000E+00
14  5-6.93234942E-01 0.00000000E+00 0.00000000E+00 4.39400860E-01-7.98503498E-02
14  6-7.98503498E-02-1.34043019E-03 0.00000000E+00 0.00000000E+00 0.00000000E+00
14  7 4.07162077E-02-6.71140498E-01 0.00000000E+00 0.00000000E+00 0.00000000E+00
15  1 0.00000000E+00 0.00000000E+00 0.00000000E+00 5.06409578E-01 7.70246942E-01
15  2 0.00000000E+00-5.91918994E-01-9.00306422E-01 0.00000000E+00 0.00000000E+00
15  3 0.00000000E+00 0.00000000E+00 0.00000000E+00-4.16111415E-02-6.32903798E-02
15  4 0.00000000E+00 0.00000000E+00 0.00000000E+00-5.06409578E-01-7.70246942E-01
15  5 0.00000000E+00 5.91918994E-01 9.00306422E-01 0.00000000E+00 0.00000000E+00
15  6 0.00000000E+00 0.00000000E+00 0.00000000E+00-4.16111415E-02-6.32903798E-02
15  7 0.00000000E+00 0.00000000E+00 0.00000000E+00 0.00000000E+00 0.00000000E+00
16  1 0.00000000E+00 0.00000000E+00 0.00000000E+00 7.70246942E-01-5.06409578E-01
16  2 0.00000000E+00-9.00306422E-01 5.91918994E-01 0.00000000E+00 0.00000000E+00
16  3 0.00000000E+00 0.00000000E+00 0.00000000E+00-6.32903798E-02 4.16111415E-02
16  4 0.00000000E+00 0.00000000E+00 0.00000000E+00-7.70246942E-01 5.06409578E-01
16  5 0.00000000E+00 9.00306422E-01-5.91918994E-01 0.00000000E+00 0.00000000E+00
16  6 0.00000000E+00 0.00000000E+00 0.00000000E+00-6.32903798E-02 4.16111415E-02
16  7 0.00000000E+00 0.00000000E+00 0.00000000E+00 0.00000000E+00 0.00000000E+00
17  1-1.73748064E-01-3.84052025E-01 1.52228106E+00 0.00000000E+00 0.00000000E+00
17  2 8.99711858E-01 0.00000000E+00 0.00000000E+00 1.56189484E-01 6.69446163E-02
17  3 6.69446163E-02-2.36896869E-01 0.00000000E+00 0.00000000E+00 0.00000000E+00
17  4 1.73748064E-01 3.84052025E-01-1.52228106E+00 0.00000000E+00 0.00000000E+00
17  5 8.99711858E-01 0.00000000E+00 0.00000000E+00 1.56189484E-01-6.69446163E-02
17  6-6.69446163E-02 2.36896869E-01 0.00000000E+00 0.00000000E+00 0.00000000E+00
17  7 0.00000000E+00 0.00000000E+00 0.00000000E+00 0.00000000E+00-1.84862587E-02
18  1 7.14573172E-01 2.04389286E+00-5.30902825E+00 0.00000000E+00 0.00000000E+00
18  2 2.52056048E-01 0.00000000E+00 0.00000000E+00-2.22226245E+00 2.39861557E-02
18  3 2.39861557E-02-1.70486128E-01 0.00000000E+00 0.00000000E+00 0.00000000E+00
18  4-7.14573172E-01-2.04389286E+00 5.30902825E+00 0.00000000E+00 0.00000000E+00
18  5 2.52056048E-01 0.00000000E+00 0.00000000E+00-2.22226245E+00-2.39861557E-02
18  6-2.39861557E-02 1.70486128E-01 0.00000000E+00 0.00000000E+00 0.00000000E+00
18  7 0.00000000E+00 0.00000000E+00 0.00000000E+00 0.00000000E+00-8.21467100E-03
19  1 0.00000000E+00 0.00000000E+00 0.00000000E+00 1.90121436E-01-2.90969141E-02
19  2 0.00000000E+00-6.14709840E-02 9.40775526E-03 0.00000000E+00 0.00000000E+00
19  3 0.00000000E+00 0.00000000E+00 0.00000000E+00-6.14826627E-01 9.40954261E-02
19  4 0.00000000E+00 0.00000000E+00 0.00000000E+00 1.90121436E-01-2.90969141E-02
19  5 0.00000000E+00-6.14709840E-02 9.40775526E-03 0.00000000E+00 0.00000000E+00
19  6 0.00000000E+00 0.00000000E+00 0.00000000E+00 6.14826627E-01-9.40954261E-02
19  7 0.00000000E+00 0.00000000E+00 1.47972090E-03-2.26462164E-04 0.00000000E+00
20  1 0.00000000E+00 0.00000000E+00 0.00000000E+00 2.90969141E-02 1.90121436E-01
20  2 0.00000000E+00-9.40775526E-03-6.14709840E-02 0.00000000E+00 0.00000000E+00
20  3 0.00000000E+00 0.00000000E+00 0.00000000E+00-9.40954261E-02-6.14826627E-01
20  4 0.00000000E+00 0.00000000E+00 0.00000000E+00 2.90969141E-02 1.90121436E-01
20  5 0.00000000E+00-9.40775526E-03-6.14709840E-02 0.00000000E+00 0.00000000E+00
20  6 0.00000000E+00 0.00000000E+00 0.00000000E+00 9.40954261E-02 6.14826627E-01
20  7 0.00000000E+00 0.00000000E+00 2.26462164E-04 1.47972090E-03 0.00000000E+00
21  1 0.00000000E+00 0.00000000E+00 0.00000000E+00 0.00000000E+00 0.00000000E+00
21  2 0.00000000E+00 0.00000000E+00 0.00000000E+00 0.00000000E+00 1.91801592E-02
21  3-1.91801592E-02 0.00000000E+00 6.80004671E-01 0.00000000E+00 0.00000000E+00
21  4 0.00000000E+00 0.00000000E+00 0.00000000E+00 0.00000000E+00 0.00000000E+00
21  5 0.00000000E+00 0.00000000E+00 0.00000000E+00 0.00000000E+00 1.91801592E-02
21  6-1.91801592E-02 0.00000000E+00 6.80004671E-01 0.00000000E+00 0.00000000E+00
21  7 0.00000000E+00 0.00000000E+00 0.00000000E+00 0.00000000E+00 0.00000000E+00
22  1 0.00000000E+00 0.00000000E+00 0.00000000E+00 0.00000000E+00 0.00000000E+00
22  2 0.00000000E+00 0.00000000E+00 0.00000000E+00 0.00000000E+00 5.88901320E-01
22  3-5.88901320E-01 0.00000000E+00-2.21473401E-02 0.00000000E+00 0.00000000E+00
22  4 0.00000000E+00 0.00000000E+00 0.00000000E+00 0.00000000E+00 0.00000000E+00
22  5 0.00000000E+00 0.00000000E+00 0.00000000E+00 0.00000000E+00 5.88901320E-01
22  6-5.88901320E-01 0.00000000E+00-2.21473401E-02 0.00000000E+00 0.00000000E+00
22  7 0.00000000E+00 0.00000000E+00 0.00000000E+00 0.00000000E+00 0.00000000E+00
23  1-9.91265932E-02-3.15855951E-01 3.74545437E-01 0.00000000E+00 0.00000000E+00
23  2-3.03002655E-01 0.00000000E+00 0.00000000E+00 5.05449185E-01-4.44658413E-01
23  3-4.44658413E-01 5.66987271E-01 0.00000000E+00 0.00000000E+00 0.00000000E+00
23  4-9.91265932E-02-3.15855951E-01 3.74545437E-01 0.00000000E+00 0.00000000E+00
23  5 3.03002655E-01 0.00000000E+00 0.00000000E+00-5.05449185E-01-4.44658413E-01
23  6-4.44658413E-01 5.66987271E-01 0.00000000E+00 0.00000000E+00 0.00000000E+00
23  7 2.11723349E-01-5.50782702E-01 0.00000000E+00 0.00000000E+00 0.00000000E+00
24  1 0.00000000E+00 0.00000000E+00 0.00000000E+00 0.00000000E+00 0.00000000E+00
24  2 0.00000000E+00 0.00000000E+00 0.00000000E+00 0.00000000E+00-1.47236134E-02
24  3 1.47236134E-02 0.00000000E+00-7.37075533E-01 0.00000000E+00 0.00000000E+00
24  4 0.00000000E+00 0.00000000E+00 0.00000000E+00 0.00000000E+00 0.00000000E+00
24  5 0.00000000E+00 0.00000000E+00 0.00000000E+00 0.00000000E+00 1.47236134E-02
24  6-1.47236134E-02 0.00000000E+00 7.37075533E-01 0.00000000E+00 0.00000000E+00
24  7 0.00000000E+00 0.00000000E+00 0.00000000E+00 0.00000000E+00 0.00000000E+00
25  1 0.00000000E+00 0.00000000E+00 0.00000000E+00 0.00000000E+00 0.00000000E+00
25  2 0.00000000E+00 0.00000000E+00 0.00000000E+00 0.00000000E+00 6.38326136E-01
25  3-6.38326136E-01 0.00000000E+00-1.70013643E-02 0.00000000E+00 0.00000000E+00
25  4 0.00000000E+00 0.00000000E+00 0.00000000E+00 0.00000000E+00 0.00000000E+00
25  5 0.00000000E+00 0.00000000E+00 0.00000000E+00 0.00000000E+00-6.38326136E-01
25  6 6.38326136E-01 0.00000000E+00 1.70013643E-02 0.00000000E+00 0.00000000E+00
25  7 0.00000000E+00 0.00000000E+00 0.00000000E+00 0.00000000E+00 0.00000000E+00
26  1 0.00000000E+00 0.00000000E+00 0.00000000E+00 2.24099867E-01-5.55836928E-02
26  2 0.00000000E+00 1.69679937E-01-4.20858683E-02 0.00000000E+00 0.00000000E+00
26  3 0.00000000E+00 0.00000000E+00 0.00000000E+00 8.79751218E-01-2.18205491E-01
26  4 0.00000000E+00 0.00000000E+00 0.00000000E+00-2.24099867E-01 5.55836928E-02
26  5 0.00000000E+00-1.69679937E-01 4.20858683E-02 0.00000000E+00 0.00000000E+00
26  6 0.00000000E+00 0.00000000E+00 0.00000000E+00 8.79751218E-01-2.18205491E-01
26  7 0.00000000E+00 0.00000000E+00 0.00000000E+00 0.00000000E+00 0.00000000E+00
27  1 0.00000000E+00 0.00000000E+00 0.00000000E+00 5.55836928E-02 2.24099867E-01
27  2 0.00000000E+00 4.20858683E-02 1.69679937E-01 0.00000000E+00 0.00000000E+00
27  3 0.00000000E+00 0.00000000E+00 0.00000000E+00 2.18205491E-01 8.79751218E-01
27  4 0.00000000E+00 0.00000000E+00 0.00000000E+00-5.55836928E-02-2.24099867E-01
27  5 0.00000000E+00-4.20858683E-02-1.69679937E-01 0.00000000E+00 0.00000000E+00
27  6 0.00000000E+00 0.00000000E+00 0.00000000E+00 2.18205491E-01 8.79751218E-01
27  7 0.00000000E+00 0.00000000E+00 0.00000000E+00 0.00000000E+00 0.00000000E+00
28  1 8.93273859E-02 4.97486286E-01 1.91449523E+00 0.00000000E+00 0.00000000E+00
28  2 1.17398794E+00 0.00000000E+00 0.00000000E+00 7.51454820E-01-6.60344425E-01
28  3-6.60344425E-01 1.06114669E+00 0.00000000E+00 0.00000000E+00 0.00000000E+00
28  4-8.93273859E-02-4.97486286E-01-1.91449523E+00 0.00000000E+00 0.00000000E+00
28  5 1.17398794E+00 0.00000000E+00 0.00000000E+00 7.51454820E-01 6.60344425E-01
28  6 6.60344425E-01-1.06114669E+00 0.00000000E+00 0.00000000E+00 0.00000000E+00
28  7 0.00000000E+00 0.00000000E+00 0.00000000E+00 0.00000000E+00 4.72817385E-03
29  1-4.35772770E-02 8.74805205E-01 4.11598288E-01 0.00000000E+00 0.00000000E+00
29  2-9.99492250E-01 0.00000000E+00 0.00000000E+00 1.96996191E-01-7.38084480E-01
29  3-7.38084480E-01-1.60783851E+00 0.00000000E+00 0.00000000E+00 0.00000000E+00
29  4-4.35772770E-02 8.74805205E-01 4.11598288E-01 0.00000000E+00 0.00000000E+00
29  5 9.99492250E-01 0.00000000E+00 0.00000000E+00-1.96996191E-01-7.38084480E-01
29  6-7.38084480E-01-1.60783851E+00 0.00000000E+00 0.00000000E+00 0.00000000E+00
29  7 4.36399317E-01 2.47367221E+00 0.00000000E+00 0.00000000E+00 0.00000000E+00
30  1 4.07486640E-01 2.12580845E+00 1.53703481E+00 0.00000000E+00 0.00000000E+00
30  2-6.61507427E-01 0.00000000E+00 0.00000000E+00 5.81138113E-01-1.24506966E+00
30  3-1.24506966E+00-1.88509205E+00 0.00000000E+00 0.00000000E+00 0.00000000E+00
30  4-4.07486640E-01-2.12580845E+00-1.53703481E+00 0.00000000E+00 0.00000000E+00
30  5-6.61507427E-01 0.00000000E+00 0.00000000E+00 5.81138113E-01 1.24506966E+00
30  6 1.24506966E+00 1.88509205E+00 0.00000000E+00 0.00000000E+00 0.00000000E+00
30  7 0.00000000E+00 0.00000000E+00 0.00000000E+00 0.00000000E+00-3.48890013E-02
31  1 1.00271616E+00 3.12719677E+00-8.76066975E-02 0.00000000E+00 0.00000000E+00
31  2 1.45601880E+00 0.00000000E+00 0.00000000E+00-2.80549354E-01-1.22608590E+00
31  3-1.22608590E+00 1.00757395E-01 0.00000000E+00 0.00000000E+00 0.00000000E+00
31  4 1.00271616E+00 3.12719677E+00-8.76066975E-02 0.00000000E+00 0.00000000E+00
31  5-1.45601880E+00 0.00000000E+00 0.00000000E+00 2.80549354E-01-1.22608590E+00
31  6-1.22608590E+00 1.00757395E-01 0.00000000E+00 0.00000000E+00 0.00000000E+00
31  7-8.94716083E-01-3.11636962E+00 0.00000000E+00 0.00000000E+00 0.00000000E+00
32  1-1.97234127E+00-4.64744275E+00 5.04651538E-01 0.00000000E+00 0.00000000E+00
32  2-3.09785919E+00 0.00000000E+00 0.00000000E+00 5.46956857E-01 8.83056178E-01
32  3 8.83056178E-01-6.84319010E-01 0.00000000E+00 0.00000000E+00 0.00000000E+00
32  4-1.97234127E+00-4.64744275E+00 5.04651538E-01 0.00000000E+00 0.00000000E+00
32  5 3.09785919E+00 0.00000000E+00 0.00000000E+00-5.46956857E-01 8.83056178E-01
32  6 8.83056178E-01-6.84319010E-01 0.00000000E+00 0.00000000E+00 0.00000000E+00
32  7-1.28051719E+00 9.49425370E+00 0.00000000E+00 0.00000000E+00 0.00000000E+00
33  1 0.00000000E+00 0.00000000E+00 0.00000000E+00 4.22716464E-02-1.24787110E-01
33  2 0.00000000E+00-1.68493366E-02 4.97397238E-02 0.00000000E+00 0.00000000E+00
33  3 0.00000000E+00 0.00000000E+00 0.00000000E+00 6.63641181E-02-1.95908776E-01
33  4 0.00000000E+00 0.00000000E+00 0.00000000E+00 4.22716464E-02-1.24787110E-01
33  5 0.00000000E+00-1.68493366E-02 4.97397238E-02 0.00000000E+00 0.00000000E+00
33  6 0.00000000E+00 0.00000000E+00 0.00000000E+00-6.63641181E-02 1.95908776E-01
33  7 0.00000000E+00 0.00000000E+00-3.43781111E-01 1.01485168E+00 0.00000000E+00
34  1 0.00000000E+00 0.00000000E+00 0.00000000E+00-1.24787110E-01-4.22716464E-02
34  2 0.00000000E+00 4.97397238E-02 1.68493366E-02 0.00000000E+00 0.00000000E+00
34  3 0.00000000E+00 0.00000000E+00 0.00000000E+00-1.95908776E-01-6.63641181E-02
34  4 0.00000000E+00 0.00000000E+00 0.00000000E+00-1.24787110E-01-4.22716464E-02
34  5 0.00000000E+00 4.97397238E-02 1.68493366E-02 0.00000000E+00 0.00000000E+00
34  6 0.00000000E+00 0.00000000E+00 0.00000000E+00 1.95908776E-01 6.63641181E-02
34  7 0.00000000E+00 0.00000000E+00 1.01485168E+00 3.43781111E-01 0.00000000E+00
35  1 2.80023850E-01 9.62609883E-01 4.44240405E-01 0.00000000E+00 0.00000000E+00
35  2 9.59149326E-01 0.00000000E+00 0.00000000E+00 9.23543979E-02-4.55168920E-01
35  3-4.55168920E-01 3.94744657E-01 0.00000000E+00 0.00000000E+00 0.00000000E+00
35  4-2.80023850E-01-9.62609883E-01-4.44240405E-01 0.00000000E+00 0.00000000E+00
35  5 9.59149326E-01 0.00000000E+00 0.00000000E+00 9.23543979E-02 4.55168920E-01
35  6 4.55168920E-01-3.94744657E-01 0.00000000E+00 0.00000000E+00 0.00000000E+00
35  7 0.00000000E+00 0.00000000E+00 0.00000000E+00 0.00000000E+00 1.23356078E+00
 $END   
--- NUC-HF ORBITALS --- GENERATED AT Wed Mar  9 11:38:46 2011
                                                                                
E(RHF)=      -15.2718375739, E(NUC)=    1.4100531237,    9 ITERS
 $VECPRO
 1  1-5.68925184E-02 6.23877957E-01 4.72286618E+00-1.30322514E+00-2.52219983E+00
 1  2 0.00000000E+00 0.00000000E+00 0.00000000E+00 0.00000000E+00 0.00000000E+00
 1  3 0.00000000E+00 0.00000000E+00 0.00000000E+00 0.00000000E+00 0.00000000E+00
 1  4 0.00000000E+00 0.00000000E+00 0.00000000E+00 0.00000000E+00 0.00000000E+00
 1  5-5.83254301E-01-5.83254301E-01-5.98889908E-01 0.00000000E+00 0.00000000E+00
 1  6 0.00000000E+00-8.47970886E-01-8.47970886E-01-8.12068166E-01 0.00000000E+00
 1  7 0.00000000E+00 0.00000000E+00
 2  1 0.00000000E+00 0.00000000E+00 0.00000000E+00 0.00000000E+00 0.00000000E+00
 2  2-2.76525174E-02 3.07218618E-02 0.00000000E+00 1.17808996E-01-1.30885432E-01
 2  3 0.00000000E+00-2.67423139E-01 2.97106286E-01 0.00000000E+00 4.17672967E-01
 2  4-4.64033382E-01 0.00000000E+00-9.06879449E-01 1.00754028E+00 0.00000000E+00
 2  5 0.00000000E+00 0.00000000E+00 0.00000000E+00 0.00000000E+00 0.00000000E+00
 2  6 0.00000000E+00 0.00000000E+00 0.00000000E+00 0.00000000E+00 0.00000000E+00
 2  7 0.00000000E+00 0.00000000E+00
 3  1 0.00000000E+00 0.00000000E+00 0.00000000E+00 0.00000000E+00 0.00000000E+00
 3  2-3.07218618E-02-2.76525174E-02 0.00000000E+00 1.30885432E-01 1.17808996E-01
 3  3 0.00000000E+00-2.97106286E-01-2.67423139E-01 0.00000000E+00 4.64033382E-01
 3  4 4.17672967E-01 0.00000000E+00-1.00754028E+00-9.06879449E-01 0.00000000E+00
 3  5 0.00000000E+00 0.00000000E+00 0.00000000E+00 0.00000000E+00 0.00000000E+00
 3  6 0.00000000E+00 0.00000000E+00 0.00000000E+00 0.00000000E+00 0.00000000E+00
 3  7 0.00000000E+00 0.00000000E+00
 4  1 0.00000000E+00 0.00000000E+00 0.00000000E+00 0.00000000E+00 0.00000000E+00
 4  2 0.00000000E+00 0.00000000E+00-4.75940378E-02 0.00000000E+00 0.00000000E+00
 4  3 2.05076587E-01 0.00000000E+00 0.00000000E+00-4.71881102E-01 0.00000000E+00
 4  4 0.00000000E+00 7.53370095E-01 0.00000000E+00 0.00000000E+00-1.43211664E+00
 4  5 0.00000000E+00 0.00000000E+00 0.00000000E+00 0.00000000E+00 0.00000000E+00
 4  6 0.00000000E+00 0.00000000E+00 0.00000000E+00 0.00000000E+00 0.00000000E+00
 4  7 0.00000000E+00 0.00000000E+00
 5  1 3.83549724E-01-4.27296203E+00-3.36925081E+01 7.83463603E+00 1.19532531E+01
 5  2 0.00000000E+00 0.00000000E+00 0.00000000E+00 0.00000000E+00 0.00000000E+00
 5  3 0.00000000E+00 0.00000000E+00 0.00000000E+00 0.00000000E+00 0.00000000E+00
 5  4 0.00000000E+00 0.00000000E+00 0.00000000E+00 0.00000000E+00 0.00000000E+00
 5  5 4.18127328E+00 4.18127328E+00 4.05199486E+00 0.00000000E+00 0.00000000E+00
 5  6 0.00000000E+00 5.98005124E+00 5.98005124E+00 6.35305950E+00 0.00000000E+00
 5  7 0.00000000E+00 0.00000000E+00
 6  1 2.27009575E-11-2.10533153E-10-9.62115586E-10 5.65347201E-10 1.06213681E-10
 6  2 0.00000000E+00 0.00000000E+00 0.00000000E+00 0.00000000E+00 0.00000000E+00
 6  3 0.00000000E+00 0.00000000E+00 0.00000000E+00 0.00000000E+00 0.00000000E+00
 6  4 0.00000000E+00 0.00000000E+00 0.00000000E+00 0.00000000E+00 0.00000000E+00
 6  5-4.41123199E-01 4.41123199E-01 1.49615670E-10-9.35306560E-02 0.00000000E+00
 6  6 0.00000000E+00 1.21235692E+00-1.21235692E+00 1.26146985E-10 2.57054125E-01
 6  7 0.00000000E+00 0.00000000E+00
 7  1 0.00000000E+00 3.86754304E-11 1.76579307E-10-1.03752882E-10-1.95152959E-11
 7  2 0.00000000E+00 0.00000000E+00 0.00000000E+00 0.00000000E+00 0.00000000E+00
 7  3 0.00000000E+00 0.00000000E+00 0.00000000E+00 0.00000000E+00 0.00000000E+00
 7  4 0.00000000E+00 0.00000000E+00 0.00000000E+00 0.00000000E+00 0.00000000E+00
 7  5 8.09999241E-02-8.09999242E-02-2.74720551E-11-5.09365196E-01 0.00000000E+00
 7  6 0.00000000E+00-2.22615402E-01 2.22615402E-01-2.31464970E-11 1.39990919E+00
 7  7 0.00000000E+00 0.00000000E+00
 8  1 0.00000000E+00 0.00000000E+00 0.00000000E+00 0.00000000E+00 0.00000000E+00
 8  2 0.00000000E+00 0.00000000E+00 0.00000000E+00 0.00000000E+00 0.00000000E+00
 8  3 0.00000000E+00 0.00000000E+00 0.00000000E+00 0.00000000E+00 0.00000000E+00
 8  4 0.00000000E+00 0.00000000E+00 0.00000000E+00 0.00000000E+00 0.00000000E+00
 8  5 0.00000000E+00 0.00000000E+00 0.00000000E+00 0.00000000E+00 4.15386235E-01
 8  6-3.22423378E-01 0.00000000E+00 0.00000000E+00 0.00000000E+00 0.00000000E+00
 8  7-1.12909241E+00 8.76403108E-01
 9  1 0.00000000E+00 0.00000000E+00 0.00000000E+00 0.00000000E+00 0.00000000E+00
 9  2 0.00000000E+00 0.00000000E+00 0.00000000E+00 0.00000000E+00 0.00000000E+00
 9  3 0.00000000E+00 0.00000000E+00 0.00000000E+00 0.00000000E+00 0.00000000E+00
 9  4 0.00000000E+00 0.00000000E+00 0.00000000E+00 0.00000000E+00 0.00000000E+00
 9  5 0.00000000E+00 0.00000000E+00 0.00000000E+00 0.00000000E+00-3.22423378E-01
 9  6-4.15386235E-01 0.00000000E+00 0.00000000E+00 0.00000000E+00 0.00000000E+00
 9  7 8.76403108E-01 1.12909241E+00
10  1-1.34821998E-01 1.50958393E+00 1.18043795E+01-3.12022594E+00-3.78966068E+00
10  2 0.00000000E+00 0.00000000E+00 0.00000000E+00 0.00000000E+00 0.00000000E+00
10  3 0.00000000E+00 0.00000000E+00 0.00000000E+00 0.00000000E+00 0.00000000E+00
10  4 0.00000000E+00 0.00000000E+00 0.00000000E+00 0.00000000E+00 0.00000000E+00
10  5-1.17123191E+00-1.17123191E+00-1.94553120E+00 0.00000000E+00 0.00000000E+00
10  6 0.00000000E+00-2.89567076E+00-2.89567076E+00-7.91516623E-01 0.00000000E+00
10  7 0.00000000E+00 0.00000000E+00
11  1 0.00000000E+00 0.00000000E+00 0.00000000E+00 0.00000000E+00 0.00000000E+00
11  2-2.19078548E-01-1.46568016E-01 0.00000000E+00 9.72696442E-01 6.50753755E-01
11  3 0.00000000E+00-2.37789883E+00-1.59086280E+00 0.00000000E+00 4.46744060E+00
11  4 2.98880886E+00 0.00000000E+00-2.72295305E+00-1.82171111E+00 0.00000000E+00
11  5 0.00000000E+00 0.00000000E+00 0.00000000E+00 0.00000000E+00 0.00000000E+00
11  6 0.00000000E+00 0.00000000E+00 0.00000000E+00 0.00000000E+00 0.00000000E+00
11  7 0.00000000E+00 0.00000000E+00
12  1 0.00000000E+00 0.00000000E+00 0.00000000E+00 0.00000000E+00 0.00000000E+00
12  2-1.46568016E-01 2.19078548E-01 0.00000000E+00 6.50753755E-01-9.72696442E-01
12  3 0.00000000E+00-1.59086280E+00 2.37789883E+00 0.00000000E+00 2.98880886E+00
12  4-4.46744060E+00 0.00000000E+00-1.82171111E+00 2.72295305E+00 0.00000000E+00
12  5 0.00000000E+00 0.00000000E+00 0.00000000E+00 0.00000000E+00 0.00000000E+00